\ Model _copy
\ LP format - for model browsing. Use MPS format to capture full model detail.
\ Signature: 0xed07b7ce680def88
Minimize
 
Subject To
 R1661073: - x[1792,76] - x[2304,76] - x[6668,76] = 0
 R1661074: - x[1793,76] - x[2305,76] - x[6669,76] = 0
 R1661075: - x[1794,76] - x[2306,76] - x[6670,76] = 0
 R1661076: - x[1795,76] + x[1826,76] + x[2270,76] - x[2307,76] - x[6671,76]
   = 0
 R1661077: - x[1796,76] + x[1827,76] + x[2271,76] - x[2308,76] - x[6672,76]
   = 0
 R1661078: - x[1797,76] + x[1828,76] + x[2272,76] - x[2309,76] - x[6673,76]
   = 0
 R1661079: - x[1798,76] + x[1829,76] + x[2273,76] - x[2310,76] - x[6674,76]
   = 0
 R1661080: - x[1799,76] + x[1830,76] + x[2274,76] - x[2311,76] - x[6675,76]
   = 0
 R1661081: - x[1800,76] + x[1831,76] + x[2275,76] - x[2312,76] - x[6676,76]
   = 0
 R1661082: - x[1801,76] + x[1832,76] + x[2276,76] - x[2313,76] - x[6677,76]
   = 0
 R1661083: - x[1802,76] + x[1833,76] + x[2277,76] - x[2314,76] - x[6678,76]
   = 0
 R1661084: - x[1803,76] + x[1834,76] + x[2278,76] - x[2315,76] - x[6679,76]
   = 0
 R1661085: - x[1804,76] + x[1835,76] + x[2279,76] - x[2316,76] - x[6680,76]
   = 0
 R1661086: - x[1805,76] + x[1836,76] + x[2280,76] - x[2317,76] - x[6681,76]
   = 0
 R1661087: - x[1806,76] + x[1837,76] + x[2281,76] - x[2318,76] - x[6682,76]
   = 0
 R1661088: - x[1807,76] + x[1838,76] + x[2282,76] - x[2319,76] - x[6683,76]
   = 0
 R1661089: - x[1808,76] + x[1839,76] + x[2283,76] - x[2320,76] - x[6684,76]
   = 0
 R1661090: - x[1809,76] + x[1840,76] + x[2284,76] - x[2321,76] - x[6685,76]
   = 0
 R1661091: - x[1810,76] + x[1841,76] + x[2285,76] - x[2322,76] - x[6686,76]
   = 0
 R1661092: - x[1811,76] + x[1842,76] + x[2286,76] - x[2323,76] - x[6687,76]
   = 0
 R1661093: - x[1812,76] + x[1843,76] + x[2287,76] - x[2324,76] - x[6688,76]
   = 0
 R1661094: - x[1813,76] + x[1844,76] + x[2288,76] - x[2325,76] - x[6689,76]
   = 0
 R1661095: - x[1814,76] + x[1845,76] + x[2289,76] - x[2326,76] - x[6690,76]
   = 0
 R1661096: - x[1815,76] + x[1846,76] + x[2290,76] - x[2327,76] - x[6691,76]
   = 0
 R1661097: - x[1816,76] + x[1847,76] + x[2291,76] - x[2328,76] - x[6692,76]
   = 0
 R1661098: - x[1817,76] + x[1848,76] + x[2292,76] - x[2329,76] - x[6693,76]
   = 0
 R1661099: - x[1818,76] + x[1849,76] + x[2293,76] - x[2330,76] - x[6694,76]
   = 0
 R1661100: - x[1819,76] + x[1850,76] + x[2294,76] - x[2331,76] - x[6695,76]
   = 0
 R1661101: - x[1820,76] + x[1851,76] + x[2295,76] - x[2332,76] - x[6696,76]
   = 0
 R1661102: - x[1821,76] + x[1852,76] + x[2296,76] - x[2333,76] - x[6697,76]
   = 0
 R1661103: - x[1822,76] + x[1853,76] + x[2297,76] - x[2334,76] - x[6698,76]
   = 0
 R1661104: - x[1823,76] + x[1854,76] + x[2298,76] - x[2335,76] - x[6699,76]
   = 0
 R1661105: - x[1824,76] + x[1855,76] + x[2299,76] - x[2336,76] - x[6700,76]
   = 0
 R1661106: - x[1825,76] + x[1856,76] + x[2300,76] - x[2337,76] - x[6701,76]
   = 0
 R1661665: - x[1112,76] - x[1316,76] - x[1422,76] - x[1458,76] - x[1724,76]
   - x[7260,76] = 0
 R1661666: - x[1113,76] - x[1317,76] + x[1386,76] - x[1423,76] - x[1459,76]
   - x[1725,76] - x[7261,76] = 0
 R1661667: - x[1114,76] - x[1318,76] + x[1351,76] + x[1387,76] - x[1424,76]
   - x[1460,76] - x[1726,76] - x[7262,76] = 0
 R1661668: - x[1115,76] + x[1146,76] - x[1319,76] + x[1352,76] + x[1388,76]
   - x[1425,76] - x[1461,76] - x[1727,76] + x[1758,76] - x[7263,76] = 0
 R1661669: - x[1116,76] + x[1147,76] - x[1320,76] + x[1353,76] + x[1389,76]
   - x[1426,76] - x[1462,76] + x[1491,76] - x[1728,76] + x[1759,76]
   - x[7264,76] = 0
 R1661670: - x[1117,76] + x[1148,76] - x[1321,76] + x[1354,76] + x[1390,76]
   - x[1427,76] - x[1463,76] + x[1492,76] - x[1729,76] + x[1760,76]
   - x[7265,76] = 0
 R1661671: - x[1118,76] + x[1149,76] - x[1322,76] + x[1355,76] + x[1391,76]
   - x[1428,76] - x[1464,76] + x[1493,76] - x[1730,76] + x[1761,76]
   - x[7266,76] = 0
 R1661672: - x[1119,76] + x[1150,76] - x[1323,76] + x[1356,76] + x[1392,76]
   - x[1429,76] - x[1465,76] + x[1494,76] - x[1731,76] + x[1762,76]
   - x[7267,76] = 0
 R1661673: - x[1120,76] + x[1151,76] - x[1324,76] + x[1357,76] + x[1393,76]
   - x[1430,76] - x[1466,76] + x[1495,76] - x[1732,76] + x[1763,76]
   - x[7268,76] = 0
 R1661674: - x[1121,76] + x[1152,76] - x[1325,76] + x[1358,76] + x[1394,76]
   - x[1431,76] - x[1467,76] + x[1496,76] - x[1733,76] + x[1764,76]
   - x[7269,76] = 0
 R1661675: - x[1122,76] + x[1153,76] - x[1326,76] + x[1359,76] + x[1395,76]
   - x[1432,76] - x[1468,76] + x[1497,76] - x[1734,76] + x[1765,76]
   - x[7270,76] = 0
 R1661676: - x[1123,76] + x[1154,76] - x[1327,76] + x[1360,76] + x[1396,76]
   - x[1433,76] - x[1469,76] + x[1498,76] - x[1735,76] + x[1766,76]
   - x[7271,76] = 0
 R1661677: - x[1124,76] + x[1155,76] - x[1328,76] + x[1361,76] + x[1397,76]
   - x[1434,76] - x[1470,76] + x[1499,76] - x[1736,76] + x[1767,76]
   - x[7272,76] = 0
 R1661678: - x[1125,76] + x[1156,76] - x[1329,76] + x[1362,76] + x[1398,76]
   - x[1435,76] - x[1471,76] + x[1500,76] - x[1737,76] + x[1768,76]
   - x[7273,76] = 0
 R1661679: - x[1126,76] + x[1157,76] - x[1330,76] + x[1363,76] + x[1399,76]
   - x[1436,76] - x[1472,76] + x[1501,76] - x[1738,76] + x[1769,76]
   - x[7274,76] = 0
 R1661680: - x[1127,76] + x[1158,76] - x[1331,76] + x[1364,76] + x[1400,76]
   - x[1437,76] - x[1473,76] + x[1502,76] - x[1739,76] + x[1770,76]
   - x[7275,76] = 0
 R1661681: - x[1128,76] + x[1159,76] - x[1332,76] + x[1365,76] + x[1401,76]
   - x[1438,76] - x[1474,76] + x[1503,76] - x[1740,76] + x[1771,76]
   - x[7276,76] = 0
 R1661682: - x[1129,76] + x[1160,76] - x[1333,76] + x[1366,76] + x[1402,76]
   - x[1439,76] - x[1475,76] + x[1504,76] - x[1741,76] + x[1772,76]
   - x[7277,76] = 0
 R1661683: - x[1130,76] + x[1161,76] - x[1334,76] + x[1367,76] + x[1403,76]
   - x[1440,76] - x[1476,76] + x[1505,76] - x[1742,76] + x[1773,76]
   - x[7278,76] = 0
 R1661684: - x[1131,76] + x[1162,76] - x[1335,76] + x[1368,76] + x[1404,76]
   - x[1441,76] - x[1477,76] + x[1506,76] - x[1743,76] + x[1774,76]
   - x[7279,76] = 0
 R1661685: - x[1132,76] + x[1163,76] - x[1336,76] + x[1369,76] + x[1405,76]
   - x[1442,76] - x[1478,76] + x[1507,76] - x[1744,76] + x[1775,76]
   - x[7280,76] = 0
 R1661686: - x[1133,76] + x[1164,76] - x[1337,76] + x[1370,76] + x[1406,76]
   - x[1443,76] - x[1479,76] + x[1508,76] - x[1745,76] + x[1776,76]
   - x[7281,76] = 0
 R1661687: - x[1134,76] + x[1165,76] - x[1338,76] + x[1371,76] + x[1407,76]
   - x[1444,76] - x[1480,76] + x[1509,76] - x[1746,76] + x[1777,76]
   - x[7282,76] = 0
 R1661688: - x[1135,76] + x[1166,76] - x[1339,76] + x[1372,76] + x[1408,76]
   - x[1445,76] - x[1481,76] + x[1510,76] - x[1747,76] + x[1778,76]
   - x[7283,76] = 0
 R1661689: - x[1136,76] + x[1167,76] - x[1340,76] + x[1373,76] + x[1409,76]
   - x[1446,76] - x[1482,76] + x[1511,76] - x[1748,76] + x[1779,76]
   - x[7284,76] = 0
 R1661690: - x[1137,76] + x[1168,76] - x[1341,76] + x[1374,76] + x[1410,76]
   - x[1447,76] - x[1483,76] + x[1512,76] - x[1749,76] + x[1780,76]
   - x[7285,76] = 0
 R1662109: - x[1386,76] - x[1557,76] - x[7704,76] = 0
 R1662110: - x[1387,76] + x[1422,76] - x[1558,76] - x[7705,76] = 0
 R1662111: - x[1388,76] + x[1423,76] - x[1559,76] - x[7706,76] = 0
 R1662112: - x[1389,76] + x[1424,76] - x[1560,76] - x[7707,76] = 0
 R1662113: - x[1390,76] + x[1425,76] + x[1524,76] - x[1561,76] - x[7708,76]
   = 0
 R1662114: - x[1391,76] + x[1426,76] + x[1525,76] - x[1562,76] - x[7709,76]
   = 0
 R1662115: - x[1392,76] + x[1427,76] + x[1526,76] - x[1563,76] - x[7710,76]
   = 0
 R1662116: - x[1393,76] + x[1428,76] + x[1527,76] - x[1564,76] - x[7711,76]
   = 0
 R1662117: - x[1394,76] + x[1429,76] + x[1528,76] - x[1565,76] - x[7712,76]
   = 0
 R1662118: - x[1395,76] + x[1430,76] + x[1529,76] - x[1566,76] - x[7713,76]
   = 0
 R1662119: - x[1396,76] + x[1431,76] + x[1530,76] - x[1567,76] - x[7714,76]
   = 0
 R1662120: - x[1397,76] + x[1432,76] + x[1531,76] - x[1568,76] - x[7715,76]
   = 0
 R1662121: - x[1398,76] + x[1433,76] + x[1532,76] - x[1569,76] - x[7716,76]
   = 0
 R1662122: - x[1399,76] + x[1434,76] + x[1533,76] - x[1570,76] - x[7717,76]
   = 0
 R1662123: - x[1400,76] + x[1435,76] + x[1534,76] - x[1571,76] - x[7718,76]
   = 0
 R1662124: - x[1401,76] + x[1436,76] + x[1535,76] - x[1572,76] - x[7719,76]
   = 0
 R1662125: - x[1402,76] + x[1437,76] + x[1536,76] - x[1573,76] - x[7720,76]
   = 0
 R1662126: - x[1403,76] + x[1438,76] + x[1537,76] - x[1574,76] - x[7721,76]
   = 0
 R1662127: - x[1404,76] + x[1439,76] + x[1538,76] - x[1575,76] - x[7722,76]
   = 0
 R1662128: - x[1405,76] + x[1440,76] + x[1539,76] - x[1576,76] - x[7723,76]
   = 0
 R1662129: - x[1406,76] + x[1441,76] + x[1540,76] - x[1577,76] - x[7724,76]
   = 0
 R1662130: - x[1407,76] + x[1442,76] + x[1541,76] - x[1578,76] - x[7725,76]
   = 0
 R1662131: - x[1408,76] + x[1443,76] + x[1542,76] - x[1579,76] - x[7726,76]
   = 0
 R1662132: - x[1409,76] + x[1444,76] + x[1543,76] - x[1580,76] - x[7727,76]
   = 0
 R1662133: - x[1410,76] + x[1445,76] + x[1544,76] - x[1581,76] - x[7728,76]
   = 0
 R1662134: - x[1411,76] + x[1446,76] + x[1545,76] - x[1582,76] - x[7729,76]
   = 0
 R1662135: - x[1412,76] + x[1447,76] + x[1546,76] - x[1583,76] - x[7730,76]
   = 0
 R1662368: - x[1524,76] - x[1826,76] - x[7963,76] = 0
 R1662369: - x[1525,76] - x[1827,76] - x[7964,76] = 0
 R1662370: - x[1526,76] - x[1828,76] - x[7965,76] = 0
 R1662371: - x[1527,76] + x[1792,76] - x[1829,76] - x[7966,76] = 0
 R1662372: - x[1528,76] + x[1557,76] + x[1793,76] - x[1830,76] - x[7967,76]
   = 0
 R1662373: - x[1529,76] + x[1558,76] + x[1794,76] - x[1831,76] - x[7968,76]
   = 0
 R1662374: - x[1530,76] + x[1559,76] + x[1795,76] - x[1832,76] - x[7969,76]
   = 0
 R1662375: - x[1531,76] + x[1560,76] + x[1796,76] - x[1833,76] - x[7970,76]
   = 0
 R1662376: - x[1532,76] + x[1561,76] + x[1797,76] - x[1834,76] - x[7971,76]
   = 0
 R1662377: - x[1533,76] + x[1562,76] + x[1798,76] - x[1835,76] - x[7972,76]
   = 0
 R1662378: - x[1534,76] + x[1563,76] + x[1799,76] - x[1836,76] - x[7973,76]
   = 0
 R1662379: - x[1535,76] + x[1564,76] + x[1800,76] - x[1837,76] - x[7974,76]
   = 0
 R1662380: - x[1536,76] + x[1565,76] + x[1801,76] - x[1838,76] - x[7975,76]
   = 0
 R1662381: - x[1537,76] + x[1566,76] + x[1802,76] - x[1839,76] - x[7976,76]
   = 0
 R1662382: - x[1538,76] + x[1567,76] + x[1803,76] - x[1840,76] - x[7977,76]
   = 0
 R1662383: - x[1539,76] + x[1568,76] + x[1804,76] - x[1841,76] - x[7978,76]
   = 0
 R1662384: - x[1540,76] + x[1569,76] + x[1805,76] - x[1842,76] - x[7979,76]
   = 0
 R1662385: - x[1541,76] + x[1570,76] + x[1806,76] - x[1843,76] - x[7980,76]
   = 0
 R1662386: - x[1542,76] + x[1571,76] + x[1807,76] - x[1844,76] - x[7981,76]
   = 0
 R1662387: - x[1543,76] + x[1572,76] + x[1808,76] - x[1845,76] - x[7982,76]
   = 0
 R1662388: - x[1544,76] + x[1573,76] + x[1809,76] - x[1846,76] - x[7983,76]
   = 0
 R1662389: - x[1545,76] + x[1574,76] + x[1810,76] - x[1847,76] - x[7984,76]
   = 0
 R1662390: - x[1546,76] + x[1575,76] + x[1811,76] - x[1848,76] - x[7985,76]
   = 0
 R1662391: - x[1547,76] + x[1576,76] + x[1812,76] - x[1849,76] - x[7986,76]
   = 0
 R1662392: - x[1548,76] + x[1577,76] + x[1813,76] - x[1850,76] - x[7987,76]
   = 0
 R1662393: - x[1549,76] + x[1578,76] + x[1814,76] - x[1851,76] - x[7988,76]
   = 0
 R1662394: - x[1550,76] + x[1579,76] + x[1815,76] - x[1852,76] - x[7989,76]
   = 0
 R1662395: - x[1551,76] + x[1580,76] + x[1816,76] - x[1853,76] - x[7990,76]
   = 0
 R1662396: - x[1552,76] + x[1581,76] + x[1817,76] - x[1854,76] - x[7991,76]
   = 0
 R1662397: - x[1553,76] + x[1582,76] + x[1818,76] - x[1855,76] - x[7992,76]
   = 0
 R1662398: - x[1554,76] + x[1583,76] + x[1819,76] - x[1856,76] - x[7993,76]
   = 0
 R1663293: - x[2134,76] - x[2270,76] - x[2512,76] - x[8888,76] = 0
 R1663294: - x[2135,76] - x[2271,76] + x[2476,76] - x[2513,76] - x[8889,76]
   = 0
 R1663295: - x[2136,76] - x[2272,76] + x[2477,76] - x[2514,76] - x[8890,76]
   = 0
 R1663296: - x[2137,76] + x[2168,76] - x[2273,76] + x[2304,76] + x[2478,76]
   - x[2515,76] - x[8891,76] = 0
 R1663297: - x[2138,76] + x[2169,76] - x[2274,76] + x[2305,76] + x[2479,76]
   - x[2516,76] - x[8892,76] = 0
 R1663298: - x[2139,76] + x[2170,76] - x[2275,76] + x[2306,76] + x[2480,76]
   - x[2517,76] - x[8893,76] = 0
 R1663299: - x[2140,76] + x[2171,76] - x[2276,76] + x[2307,76] + x[2481,76]
   - x[2518,76] - x[8894,76] = 0
 R1663300: - x[2141,76] + x[2172,76] - x[2277,76] + x[2308,76] + x[2482,76]
   - x[2519,76] - x[8895,76] = 0
 R1663301: - x[2142,76] + x[2173,76] - x[2278,76] + x[2309,76] + x[2483,76]
   - x[2520,76] - x[8896,76] = 0
 R1663302: - x[2143,76] + x[2174,76] - x[2279,76] + x[2310,76] + x[2484,76]
   - x[2521,76] - x[8897,76] = 0
 R1663303: - x[2144,76] + x[2175,76] - x[2280,76] + x[2311,76] + x[2485,76]
   - x[2522,76] - x[8898,76] = 0
 R1663304: - x[2145,76] + x[2176,76] - x[2281,76] + x[2312,76] + x[2486,76]
   - x[2523,76] - x[8899,76] = 0
 R1663305: - x[2146,76] + x[2177,76] - x[2282,76] + x[2313,76] + x[2487,76]
   - x[2524,76] - x[8900,76] = 0
 R1663306: - x[2147,76] + x[2178,76] - x[2283,76] + x[2314,76] + x[2488,76]
   - x[2525,76] - x[8901,76] = 0
 R1663307: - x[2148,76] + x[2179,76] - x[2284,76] + x[2315,76] + x[2489,76]
   - x[2526,76] - x[8902,76] = 0
 R1663308: - x[2149,76] + x[2180,76] - x[2285,76] + x[2316,76] + x[2490,76]
   - x[2527,76] - x[8903,76] = 0
 R1663309: - x[2150,76] + x[2181,76] - x[2286,76] + x[2317,76] + x[2491,76]
   - x[2528,76] - x[8904,76] = 0
 R1663310: - x[2151,76] + x[2182,76] - x[2287,76] + x[2318,76] + x[2492,76]
   - x[2529,76] - x[8905,76] = 0
 R1663311: - x[2152,76] + x[2183,76] - x[2288,76] + x[2319,76] + x[2493,76]
   - x[2530,76] - x[8906,76] = 0
 R1663312: - x[2153,76] + x[2184,76] - x[2289,76] + x[2320,76] + x[2494,76]
   - x[2531,76] - x[8907,76] = 0
 R1663313: - x[2154,76] + x[2185,76] - x[2290,76] + x[2321,76] + x[2495,76]
   - x[2532,76] - x[8908,76] = 0
 R1663314: - x[2155,76] + x[2186,76] - x[2291,76] + x[2322,76] + x[2496,76]
   - x[2533,76] - x[8909,76] = 0
 R1663315: - x[2156,76] + x[2187,76] - x[2292,76] + x[2323,76] + x[2497,76]
   - x[2534,76] - x[8910,76] = 0
 R1663316: - x[2157,76] + x[2188,76] - x[2293,76] + x[2324,76] + x[2498,76]
   - x[2535,76] - x[8911,76] = 0
 R1663317: - x[2158,76] + x[2189,76] - x[2294,76] + x[2325,76] + x[2499,76]
   - x[2536,76] - x[8912,76] = 0
 R1663318: - x[2159,76] + x[2190,76] - x[2295,76] + x[2326,76] + x[2500,76]
   - x[2537,76] - x[8913,76] = 0
 R1663319: - x[2160,76] + x[2191,76] - x[2296,76] + x[2327,76] + x[2501,76]
   - x[2538,76] - x[8914,76] = 0
 R1663320: - x[2161,76] + x[2192,76] - x[2297,76] + x[2328,76] + x[2502,76]
   - x[2539,76] - x[8915,76] = 0
 R1663321: - x[2162,76] + x[2193,76] - x[2298,76] + x[2329,76] + x[2503,76]
   - x[2540,76] - x[8916,76] = 0
 R1663322: - x[2163,76] + x[2194,76] - x[2299,76] + x[2330,76] + x[2504,76]
   - x[2541,76] - x[8917,76] = 0
 R1663323: - x[2164,76] + x[2195,76] - x[2300,76] + x[2331,76] + x[2505,76]
   - x[2542,76] - x[8918,76] = 0
 R1663324: - x[2165,76] + x[2196,76] - x[2301,76] + x[2332,76] + x[2506,76]
   - x[2543,76] - x[8919,76] = 0
 R1663325: - x[2166,76] + x[2197,76] - x[2302,76] + x[2333,76] + x[2507,76]
   - x[2544,76] - x[8920,76] = 0
 R1663326: - x[2167,76] + x[2198,76] - x[2303,76] + x[2334,76] + x[2508,76]
   - x[2545,76] - x[8921,76] = 0
 R1663327: x[2199,76] + x[2335,76] + x[2509,76] - x[2546,76] - x[8922,76]
   = 0
 R1663328: x[2200,76] + x[2336,76] + x[2510,76] - x[2547,76] - x[8923,76]
   = 0
 R1663329: x[2201,76] + x[2337,76] + x[2511,76] - x[8924,76] = 0
 R1663774: - x[1044,76] - x[1351,76] - x[1658,76] - x[9369,76] = 0
 R1663775: - x[1045,76] - x[1352,76] - x[1659,76] - x[9370,76] = 0
 R1663776: - x[1046,76] + x[1316,76] - x[1353,76] - x[1660,76] - x[9371,76]
   = 0
 R1663777: - x[1047,76] + x[1078,76] + x[1317,76] - x[1354,76] - x[1661,76]
   - x[9372,76] = 0
 R1663778: - x[1048,76] + x[1079,76] + x[1318,76] - x[1355,76] - x[1662,76]
   + x[1691,76] - x[9373,76] = 0
 R1663779: - x[1049,76] + x[1080,76] + x[1319,76] - x[1356,76] - x[1663,76]
   + x[1692,76] - x[9374,76] = 0
 R1663780: - x[1050,76] + x[1081,76] + x[1320,76] - x[1357,76] - x[1664,76]
   + x[1693,76] - x[9375,76] = 0
 R1663781: - x[1051,76] + x[1082,76] + x[1321,76] - x[1358,76] - x[1665,76]
   + x[1694,76] - x[9376,76] = 0
 R1663782: - x[1052,76] + x[1083,76] + x[1322,76] - x[1359,76] - x[1666,76]
   + x[1695,76] - x[9377,76] = 0
 R1663783: - x[1053,76] + x[1084,76] + x[1323,76] - x[1360,76] - x[1667,76]
   + x[1696,76] - x[9378,76] = 0
 R1663784: - x[1054,76] + x[1085,76] + x[1324,76] - x[1361,76] - x[1668,76]
   + x[1697,76] - x[9379,76] = 0
 R1663785: - x[1055,76] + x[1086,76] + x[1325,76] - x[1362,76] - x[1669,76]
   + x[1698,76] - x[9380,76] = 0
 R1663786: - x[1056,76] + x[1087,76] + x[1326,76] - x[1363,76] - x[1670,76]
   + x[1699,76] - x[9381,76] = 0
 R1663787: - x[1057,76] + x[1088,76] + x[1327,76] - x[1364,76] - x[1671,76]
   + x[1700,76] - x[9382,76] = 0
 R1663788: - x[1058,76] + x[1089,76] + x[1328,76] - x[1365,76] - x[1672,76]
   + x[1701,76] - x[9383,76] = 0
 R1663789: - x[1059,76] + x[1090,76] + x[1329,76] - x[1366,76] - x[1673,76]
   + x[1702,76] - x[9384,76] = 0
 R1663790: - x[1060,76] + x[1091,76] + x[1330,76] - x[1367,76] - x[1674,76]
   + x[1703,76] - x[9385,76] = 0
 R1663791: - x[1061,76] + x[1092,76] + x[1331,76] - x[1368,76] - x[1675,76]
   + x[1704,76] - x[9386,76] = 0
 R1663792: - x[1062,76] + x[1093,76] + x[1332,76] - x[1369,76] - x[1676,76]
   + x[1705,76] - x[9387,76] = 0
 R1663793: - x[1063,76] + x[1094,76] + x[1333,76] - x[1370,76] - x[1677,76]
   + x[1706,76] - x[9388,76] = 0
 R1663794: - x[1064,76] + x[1095,76] + x[1334,76] - x[1371,76] - x[1678,76]
   + x[1707,76] - x[9389,76] = 0
 R1663795: - x[1065,76] + x[1096,76] + x[1335,76] - x[1372,76] - x[1679,76]
   + x[1708,76] - x[9390,76] = 0
 R1663796: - x[1066,76] + x[1097,76] + x[1336,76] - x[1373,76] - x[1680,76]
   + x[1709,76] - x[9391,76] = 0
 R1663797: - x[1067,76] + x[1098,76] + x[1337,76] - x[1374,76] - x[1681,76]
   + x[1710,76] - x[9392,76] = 0
 R1745796: x[8888,76] + x[8889,76] + x[8890,76] + x[8891,76] + x[8892,76]
   + x[8893,76] + x[8894,76] + x[8895,76] + x[8896,76] + x[8897,76]
   + x[8898,76] + x[8899,76] + x[8900,76] + x[8901,76] + x[8902,76]
   + x[8903,76] + x[8904,76] + x[8905,76] + x[8906,76] + x[8907,76]
   + x[8908,76] + x[8909,76] + x[8910,76] + x[8911,76] + x[8912,76]
   + x[8913,76] + x[8914,76] + x[8915,76] + x[8916,76] + x[8917,76]
   + x[8918,76] + x[8919,76] + x[8920,76] + x[8921,76] + x[8922,76]
   + x[8923,76] + x[8924,76] = 1
Bounds
 x[1078,76] = 0
 x[1079,76] = 0
 x[1080,76] = 0
 x[1081,76] = 0
 x[1082,76] = 0
 x[1083,76] = 0
 x[1084,76] = 0
 x[1085,76] = 0
 x[1086,76] = 0
 x[1087,76] = 0
 x[1088,76] = 0
 x[1089,76] = 0
 x[1090,76] = 0
 x[1091,76] = 0
 x[1092,76] = 0
 x[1093,76] = 0
 x[1094,76] = 0
 x[1095,76] = 0
 x[1096,76] = 0
 x[1097,76] = 0
 x[1098,76] = 0
 x[1146,76] = 0
 x[1147,76] = 0
 x[1148,76] = 0
 x[1149,76] = 0
 x[1150,76] = 0
 x[1151,76] = 0
 x[1152,76] = 0
 x[1153,76] = 0
 x[1154,76] = 0
 x[1155,76] = 0
 x[1156,76] = 0
 x[1157,76] = 0
 x[1158,76] = 0
 x[1159,76] = 0
 x[1160,76] = 0
 x[1161,76] = 0
 x[1162,76] = 0
 x[1163,76] = 0
 x[1164,76] = 0
 x[1165,76] = 0
 x[1166,76] = 0
 x[1167,76] = 0
 x[1168,76] = 0
 x[1491,76] = 0
 x[1492,76] = 0
 x[1493,76] = 0
 x[1494,76] = 0
 x[1495,76] = 0
 x[1496,76] = 0
 x[1497,76] = 0
 x[1498,76] = 0
 x[1499,76] = 0
 x[1500,76] = 0
 x[1501,76] = 0
 x[1502,76] = 0
 x[1503,76] = 0
 x[1504,76] = 0
 x[1505,76] = 0
 x[1506,76] = 0
 x[1507,76] = 0
 x[1508,76] = 0
 x[1509,76] = 0
 x[1510,76] = 0
 x[1511,76] = 0
 x[1512,76] = 0
 x[1691,76] = 0
 x[1692,76] = 0
 x[1693,76] = 0
 x[1694,76] = 0
 x[1695,76] = 0
 x[1696,76] = 0
 x[1697,76] = 0
 x[1698,76] = 0
 x[1699,76] = 0
 x[1700,76] = 0
 x[1701,76] = 0
 x[1702,76] = 0
 x[1703,76] = 0
 x[1704,76] = 0
 x[1705,76] = 0
 x[1706,76] = 0
 x[1707,76] = 0
 x[1708,76] = 0
 x[1709,76] = 0
 x[1710,76] = 0
 x[1758,76] = 0
 x[1759,76] = 0
 x[1760,76] = 0
 x[1761,76] = 0
 x[1762,76] = 0
 x[1763,76] = 0
 x[1764,76] = 0
 x[1765,76] = 0
 x[1766,76] = 0
 x[1767,76] = 0
 x[1768,76] = 0
 x[1769,76] = 0
 x[1770,76] = 0
 x[1771,76] = 0
 x[1772,76] = 0
 x[1773,76] = 0
 x[1774,76] = 0
 x[1775,76] = 0
 x[1776,76] = 0
 x[1777,76] = 0
 x[1778,76] = 0
 x[1779,76] = 0
 x[1780,76] = 0
 x[2168,76] = 0
 x[2169,76] = 0
 x[2170,76] = 0
 x[2171,76] = 0
 x[2172,76] = 0
 x[2173,76] = 0
 x[2174,76] = 0
 x[2175,76] = 0
 x[2176,76] = 0
 x[2177,76] = 0
 x[2178,76] = 0
 x[2179,76] = 0
 x[2180,76] = 0
 x[2181,76] = 0
 x[2182,76] = 0
 x[2183,76] = 0
 x[2184,76] = 0
 x[2185,76] = 0
 x[2186,76] = 0
 x[2187,76] = 0
 x[2188,76] = 0
 x[2189,76] = 0
 x[2190,76] = 0
 x[2191,76] = 0
 x[2192,76] = 0
 x[2193,76] = 0
 x[2194,76] = 0
 x[2195,76] = 0
 x[2196,76] = 0
 x[2197,76] = 0
 x[2198,76] = 0
 x[2199,76] = 0
 x[2200,76] = 0
 x[2201,76] = 0
 x[2476,76] = 0
 x[2477,76] = 0
 x[2478,76] = 0
 x[2479,76] = 0
 x[2480,76] = 0
 x[2481,76] = 0
 x[2482,76] = 0
 x[2483,76] = 0
 x[2484,76] = 0
 x[2485,76] = 0
 x[2486,76] = 0
 x[2487,76] = 0
 x[2488,76] = 0
 x[2489,76] = 0
 x[2490,76] = 0
 x[2491,76] = 0
 x[2492,76] = 0
 x[2493,76] = 0
 x[2494,76] = 0
 x[2495,76] = 0
 x[2496,76] = 0
 x[2497,76] = 0
 x[2498,76] = 0
 x[2499,76] = 0
 x[2500,76] = 0
 x[2501,76] = 0
 x[2502,76] = 0
 x[2503,76] = 0
 x[2504,76] = 0
 x[2505,76] = 0
 x[2506,76] = 0
 x[2507,76] = 0
 x[2508,76] = 0
 x[2509,76] = 0
 x[2510,76] = 0
 x[2511,76] = 0
Binaries
 x[1044,76] x[1045,76] x[1046,76] x[1047,76] x[1048,76] x[1049,76]
 x[1050,76] x[1051,76] x[1052,76] x[1053,76] x[1054,76] x[1055,76]
 x[1056,76] x[1057,76] x[1058,76] x[1059,76] x[1060,76] x[1061,76]
 x[1062,76] x[1063,76] x[1064,76] x[1065,76] x[1066,76] x[1067,76]
 x[1078,76] x[1079,76] x[1080,76] x[1081,76] x[1082,76] x[1083,76]
 x[1084,76] x[1085,76] x[1086,76] x[1087,76] x[1088,76] x[1089,76]
 x[1090,76] x[1091,76] x[1092,76] x[1093,76] x[1094,76] x[1095,76]
 x[1096,76] x[1097,76] x[1098,76] x[1112,76] x[1113,76] x[1114,76]
 x[1115,76] x[1116,76] x[1117,76] x[1118,76] x[1119,76] x[1120,76]
 x[1121,76] x[1122,76] x[1123,76] x[1124,76] x[1125,76] x[1126,76]
 x[1127,76] x[1128,76] x[1129,76] x[1130,76] x[1131,76] x[1132,76]
 x[1133,76] x[1134,76] x[1135,76] x[1136,76] x[1137,76] x[1146,76]
 x[1147,76] x[1148,76] x[1149,76] x[1150,76] x[1151,76] x[1152,76]
 x[1153,76] x[1154,76] x[1155,76] x[1156,76] x[1157,76] x[1158,76]
 x[1159,76] x[1160,76] x[1161,76] x[1162,76] x[1163,76] x[1164,76]
 x[1165,76] x[1166,76] x[1167,76] x[1168,76] x[1316,76] x[1317,76]
 x[1318,76] x[1319,76] x[1320,76] x[1321,76] x[1322,76] x[1323,76]
 x[1324,76] x[1325,76] x[1326,76] x[1327,76] x[1328,76] x[1329,76]
 x[1330,76] x[1331,76] x[1332,76] x[1333,76] x[1334,76] x[1335,76]
 x[1336,76] x[1337,76] x[1338,76] x[1339,76] x[1340,76] x[1341,76]
 x[1351,76] x[1352,76] x[1353,76] x[1354,76] x[1355,76] x[1356,76]
 x[1357,76] x[1358,76] x[1359,76] x[1360,76] x[1361,76] x[1362,76]
 x[1363,76] x[1364,76] x[1365,76] x[1366,76] x[1367,76] x[1368,76]
 x[1369,76] x[1370,76] x[1371,76] x[1372,76] x[1373,76] x[1374,76]
 x[1386,76] x[1387,76] x[1388,76] x[1389,76] x[1390,76] x[1391,76]
 x[1392,76] x[1393,76] x[1394,76] x[1395,76] x[1396,76] x[1397,76]
 x[1398,76] x[1399,76] x[1400,76] x[1401,76] x[1402,76] x[1403,76]
 x[1404,76] x[1405,76] x[1406,76] x[1407,76] x[1408,76] x[1409,76]
 x[1410,76] x[1411,76] x[1412,76] x[1422,76] x[1423,76] x[1424,76]
 x[1425,76] x[1426,76] x[1427,76] x[1428,76] x[1429,76] x[1430,76]
 x[1431,76] x[1432,76] x[1433,76] x[1434,76] x[1435,76] x[1436,76]
 x[1437,76] x[1438,76] x[1439,76] x[1440,76] x[1441,76] x[1442,76]
 x[1443,76] x[1444,76] x[1445,76] x[1446,76] x[1447,76] x[1458,76]
 x[1459,76] x[1460,76] x[1461,76] x[1462,76] x[1463,76] x[1464,76]
 x[1465,76] x[1466,76] x[1467,76] x[1468,76] x[1469,76] x[1470,76]
 x[1471,76] x[1472,76] x[1473,76] x[1474,76] x[1475,76] x[1476,76]
 x[1477,76] x[1478,76] x[1479,76] x[1480,76] x[1481,76] x[1482,76]
 x[1483,76] x[1491,76] x[1492,76] x[1493,76] x[1494,76] x[1495,76]
 x[1496,76] x[1497,76] x[1498,76] x[1499,76] x[1500,76] x[1501,76]
 x[1502,76] x[1503,76] x[1504,76] x[1505,76] x[1506,76] x[1507,76]
 x[1508,76] x[1509,76] x[1510,76] x[1511,76] x[1512,76] x[1524,76]
 x[1525,76] x[1526,76] x[1527,76] x[1528,76] x[1529,76] x[1530,76]
 x[1531,76] x[1532,76] x[1533,76] x[1534,76] x[1535,76] x[1536,76]
 x[1537,76] x[1538,76] x[1539,76] x[1540,76] x[1541,76] x[1542,76]
 x[1543,76] x[1544,76] x[1545,76] x[1546,76] x[1547,76] x[1548,76]
 x[1549,76] x[1550,76] x[1551,76] x[1552,76] x[1553,76] x[1554,76]
 x[1557,76] x[1558,76] x[1559,76] x[1560,76] x[1561,76] x[1562,76]
 x[1563,76] x[1564,76] x[1565,76] x[1566,76] x[1567,76] x[1568,76]
 x[1569,76] x[1570,76] x[1571,76] x[1572,76] x[1573,76] x[1574,76]
 x[1575,76] x[1576,76] x[1577,76] x[1578,76] x[1579,76] x[1580,76]
 x[1581,76] x[1582,76] x[1583,76] x[1658,76] x[1659,76] x[1660,76]
 x[1661,76] x[1662,76] x[1663,76] x[1664,76] x[1665,76] x[1666,76]
 x[1667,76] x[1668,76] x[1669,76] x[1670,76] x[1671,76] x[1672,76]
 x[1673,76] x[1674,76] x[1675,76] x[1676,76] x[1677,76] x[1678,76]
 x[1679,76] x[1680,76] x[1681,76] x[1691,76] x[1692,76] x[1693,76]
 x[1694,76] x[1695,76] x[1696,76] x[1697,76] x[1698,76] x[1699,76]
 x[1700,76] x[1701,76] x[1702,76] x[1703,76] x[1704,76] x[1705,76]
 x[1706,76] x[1707,76] x[1708,76] x[1709,76] x[1710,76] x[1724,76]
 x[1725,76] x[1726,76] x[1727,76] x[1728,76] x[1729,76] x[1730,76]
 x[1731,76] x[1732,76] x[1733,76] x[1734,76] x[1735,76] x[1736,76]
 x[1737,76] x[1738,76] x[1739,76] x[1740,76] x[1741,76] x[1742,76]
 x[1743,76] x[1744,76] x[1745,76] x[1746,76] x[1747,76] x[1748,76]
 x[1749,76] x[1758,76] x[1759,76] x[1760,76] x[1761,76] x[1762,76]
 x[1763,76] x[1764,76] x[1765,76] x[1766,76] x[1767,76] x[1768,76]
 x[1769,76] x[1770,76] x[1771,76] x[1772,76] x[1773,76] x[1774,76]
 x[1775,76] x[1776,76] x[1777,76] x[1778,76] x[1779,76] x[1780,76]
 x[1792,76] x[1793,76] x[1794,76] x[1795,76] x[1796,76] x[1797,76]
 x[1798,76] x[1799,76] x[1800,76] x[1801,76] x[1802,76] x[1803,76]
 x[1804,76] x[1805,76] x[1806,76] x[1807,76] x[1808,76] x[1809,76]
 x[1810,76] x[1811,76] x[1812,76] x[1813,76] x[1814,76] x[1815,76]
 x[1816,76] x[1817,76] x[1818,76] x[1819,76] x[1820,76] x[1821,76]
 x[1822,76] x[1823,76] x[1824,76] x[1825,76] x[1826,76] x[1827,76]
 x[1828,76] x[1829,76] x[1830,76] x[1831,76] x[1832,76] x[1833,76]
 x[1834,76] x[1835,76] x[1836,76] x[1837,76] x[1838,76] x[1839,76]
 x[1840,76] x[1841,76] x[1842,76] x[1843,76] x[1844,76] x[1845,76]
 x[1846,76] x[1847,76] x[1848,76] x[1849,76] x[1850,76] x[1851,76]
 x[1852,76] x[1853,76] x[1854,76] x[1855,76] x[1856,76] x[2134,76]
 x[2135,76] x[2136,76] x[2137,76] x[2138,76] x[2139,76] x[2140,76]
 x[2141,76] x[2142,76] x[2143,76] x[2144,76] x[2145,76] x[2146,76]
 x[2147,76] x[2148,76] x[2149,76] x[2150,76] x[2151,76] x[2152,76]
 x[2153,76] x[2154,76] x[2155,76] x[2156,76] x[2157,76] x[2158,76]
 x[2159,76] x[2160,76] x[2161,76] x[2162,76] x[2163,76] x[2164,76]
 x[2165,76] x[2166,76] x[2167,76] x[2168,76] x[2169,76] x[2170,76]
 x[2171,76] x[2172,76] x[2173,76] x[2174,76] x[2175,76] x[2176,76]
 x[2177,76] x[2178,76] x[2179,76] x[2180,76] x[2181,76] x[2182,76]
 x[2183,76] x[2184,76] x[2185,76] x[2186,76] x[2187,76] x[2188,76]
 x[2189,76] x[2190,76] x[2191,76] x[2192,76] x[2193,76] x[2194,76]
 x[2195,76] x[2196,76] x[2197,76] x[2198,76] x[2199,76] x[2200,76]
 x[2201,76] x[2270,76] x[2271,76] x[2272,76] x[2273,76] x[2274,76]
 x[2275,76] x[2276,76] x[2277,76] x[2278,76] x[2279,76] x[2280,76]
 x[2281,76] x[2282,76] x[2283,76] x[2284,76] x[2285,76] x[2286,76]
 x[2287,76] x[2288,76] x[2289,76] x[2290,76] x[2291,76] x[2292,76]
 x[2293,76] x[2294,76] x[2295,76] x[2296,76] x[2297,76] x[2298,76]
 x[2299,76] x[2300,76] x[2301,76] x[2302,76] x[2303,76] x[2304,76]
 x[2305,76] x[2306,76] x[2307,76] x[2308,76] x[2309,76] x[2310,76]
 x[2311,76] x[2312,76] x[2313,76] x[2314,76] x[2315,76] x[2316,76]
 x[2317,76] x[2318,76] x[2319,76] x[2320,76] x[2321,76] x[2322,76]
 x[2323,76] x[2324,76] x[2325,76] x[2326,76] x[2327,76] x[2328,76]
 x[2329,76] x[2330,76] x[2331,76] x[2332,76] x[2333,76] x[2334,76]
 x[2335,76] x[2336,76] x[2337,76] x[2476,76] x[2477,76] x[2478,76]
 x[2479,76] x[2480,76] x[2481,76] x[2482,76] x[2483,76] x[2484,76]
 x[2485,76] x[2486,76] x[2487,76] x[2488,76] x[2489,76] x[2490,76]
 x[2491,76] x[2492,76] x[2493,76] x[2494,76] x[2495,76] x[2496,76]
 x[2497,76] x[2498,76] x[2499,76] x[2500,76] x[2501,76] x[2502,76]
 x[2503,76] x[2504,76] x[2505,76] x[2506,76] x[2507,76] x[2508,76]
 x[2509,76] x[2510,76] x[2511,76] x[2512,76] x[2513,76] x[2514,76]
 x[2515,76] x[2516,76] x[2517,76] x[2518,76] x[2519,76] x[2520,76]
 x[2521,76] x[2522,76] x[2523,76] x[2524,76] x[2525,76] x[2526,76]
 x[2527,76] x[2528,76] x[2529,76] x[2530,76] x[2531,76] x[2532,76]
 x[2533,76] x[2534,76] x[2535,76] x[2536,76] x[2537,76] x[2538,76]
 x[2539,76] x[2540,76] x[2541,76] x[2542,76] x[2543,76] x[2544,76]
 x[2545,76] x[2546,76] x[2547,76] x[6668,76] x[6669,76] x[6670,76]
 x[6671,76] x[6672,76] x[6673,76] x[6674,76] x[6675,76] x[6676,76]
 x[6677,76] x[6678,76] x[6679,76] x[6680,76] x[6681,76] x[6682,76]
 x[6683,76] x[6684,76] x[6685,76] x[6686,76] x[6687,76] x[6688,76]
 x[6689,76] x[6690,76] x[6691,76] x[6692,76] x[6693,76] x[6694,76]
 x[6695,76] x[6696,76] x[6697,76] x[6698,76] x[6699,76] x[6700,76]
 x[6701,76] x[7260,76] x[7261,76] x[7262,76] x[7263,76] x[7264,76]
 x[7265,76] x[7266,76] x[7267,76] x[7268,76] x[7269,76] x[7270,76]
 x[7271,76] x[7272,76] x[7273,76] x[7274,76] x[7275,76] x[7276,76]
 x[7277,76] x[7278,76] x[7279,76] x[7280,76] x[7281,76] x[7282,76]
 x[7283,76] x[7284,76] x[7285,76] x[7704,76] x[7705,76] x[7706,76]
 x[7707,76] x[7708,76] x[7709,76] x[7710,76] x[7711,76] x[7712,76]
 x[7713,76] x[7714,76] x[7715,76] x[7716,76] x[7717,76] x[7718,76]
 x[7719,76] x[7720,76] x[7721,76] x[7722,76] x[7723,76] x[7724,76]
 x[7725,76] x[7726,76] x[7727,76] x[7728,76] x[7729,76] x[7730,76]
 x[7963,76] x[7964,76] x[7965,76] x[7966,76] x[7967,76] x[7968,76]
 x[7969,76] x[7970,76] x[7971,76] x[7972,76] x[7973,76] x[7974,76]
 x[7975,76] x[7976,76] x[7977,76] x[7978,76] x[7979,76] x[7980,76]
 x[7981,76] x[7982,76] x[7983,76] x[7984,76] x[7985,76] x[7986,76]
 x[7987,76] x[7988,76] x[7989,76] x[7990,76] x[7991,76] x[7992,76]
 x[7993,76] x[8888,76] x[8889,76] x[8890,76] x[8891,76] x[8892,76]
 x[8893,76] x[8894,76] x[8895,76] x[8896,76] x[8897,76] x[8898,76]
 x[8899,76] x[8900,76] x[8901,76] x[8902,76] x[8903,76] x[8904,76]
 x[8905,76] x[8906,76] x[8907,76] x[8908,76] x[8909,76] x[8910,76]
 x[8911,76] x[8912,76] x[8913,76] x[8914,76] x[8915,76] x[8916,76]
 x[8917,76] x[8918,76] x[8919,76] x[8920,76] x[8921,76] x[8922,76]
 x[8923,76] x[8924,76] x[9369,76] x[9370,76] x[9371,76] x[9372,76]
 x[9373,76] x[9374,76] x[9375,76] x[9376,76] x[9377,76] x[9378,76]
 x[9379,76] x[9380,76] x[9381,76] x[9382,76] x[9383,76] x[9384,76]
 x[9385,76] x[9386,76] x[9387,76] x[9388,76] x[9389,76] x[9390,76]
 x[9391,76] x[9392,76]
End
